files/upTests/___types/relation_RelationAsSet/0001.eprime
language ESSENCE' 1.0

find x_RelationAsSet_ExplicitVarSize_tuple1:
        matrix indexed by [int(1..2)] of bool
find x_RelationAsSet_ExplicitVarSize_tuple2_tuple1:
        matrix indexed by [int(1..2)] of int(1..2)
find x_RelationAsSet_ExplicitVarSize_tuple2_tuple2:
        matrix indexed by [int(1..2)] of int(3)
such that
    x_RelationAsSet_ExplicitVarSize_tuple1[1]
    <=
    x_RelationAsSet_ExplicitVarSize_tuple1[2],
    (sum v__0 : int(1..2) . x_RelationAsSet_ExplicitVarSize_tuple1[v__0] * 1) >= 1,
    forAll v__0 : int(1..2)
        . x_RelationAsSet_ExplicitVarSize_tuple1[v__0]
          ->
          x_RelationAsSet_ExplicitVarSize_tuple2_tuple1[v__0] != 1,
    forAll v__0 : int(1..2)
        . (forAll v__1 : int(1..2)
               . v__0 < v__1 /\ x_RelationAsSet_ExplicitVarSize_tuple1[v__0]
                 /\
                 x_RelationAsSet_ExplicitVarSize_tuple1[v__1]
                 ->
                 x_RelationAsSet_ExplicitVarSize_tuple2_tuple1[v__0]
                 !=
                 x_RelationAsSet_ExplicitVarSize_tuple2_tuple1[v__1]
                 \/
                 x_RelationAsSet_ExplicitVarSize_tuple2_tuple2[v__0]
                 !=
                 x_RelationAsSet_ExplicitVarSize_tuple2_tuple2[v__1]),
    true
