files/upTests/___types/relation_RelationAsSet/0001.eprime.solution
language ESSENCE' 1.0
$ minion Nodes: 2
$ minion TotalTime: 0.000525
$ Savile Row TotalTime: 0.152
letting x_RelationAsSet_SetExplicitVarSize_tuple1 be [false, true;int(1..2)]
letting x_RelationAsSet_SetExplicitVarSize_tuple2_tuple2 be [3, 3;int(1..2)]
letting x_RelationAsSet_SetExplicitVarSize_tuple2_tuple1 be [1, 2;int(1..2)]
